c Reduced graph for r12 generated by Cyril Grelier
p edge 199 2055
e 1 11
e 1 15
e 1 18
e 1 26
e 1 31
e 1 49
e 1 76
e 1 83
e 1 85
e 1 90
e 1 114
e 1 127
e 1 143
e 1 151
e 1 153
e 1 154
e 1 155
e 1 165
e 1 185
e 1 187
e 1 191
e 2 25
e 2 34
e 2 43
e 2 53
e 2 62
e 2 79
e 2 87
e 2 93
e 2 98
e 2 105
e 2 119
e 2 133
e 2 159
e 2 162
e 2 180
e 2 191
e 3 7
e 3 37
e 3 44
e 3 59
e 3 82
e 3 90
e 3 91
e 3 97
e 3 102
e 3 108
e 3 116
e 3 118
e 3 123
e 3 131
e 3 150
e 3 156
e 3 167
e 3 174
e 3 175
e 3 180
e 3 182
e 4 13
e 4 21
e 4 32
e 4 47
e 4 51
e 4 66
e 4 68
e 4 80
e 4 89
e 4 132
e 4 133
e 4 146
e 4 149
e 4 155
e 4 164
e 4 176
e 4 197
e 4 198
e 5 14
e 5 17
e 5 18
e 5 21
e 5 59
e 5 64
e 5 70
e 5 74
e 5 78
e 5 80
e 5 81
e 5 88
e 5 92
e 5 100
e 5 125
e 5 129
e 5 142
e 5 147
e 5 163
e 5 168
e 5 183
e 5 192
e 5 194
e 6 12
e 6 24
e 6 29
e 6 38
e 6 41
e 6 46
e 6 50
e 6 52
e 6 57
e 6 62
e 6 63
e 6 67
e 6 69
e 6 73
e 6 84
e 6 98
e 6 107
e 6 137
e 6 160
e 6 161
e 7 16
e 7 23
e 7 37
e 7 82
e 7 90
e 7 93
e 7 116
e 7 118
e 7 123
e 7 126
e 7 131
e 7 132
e 7 138
e 7 143
e 7 145
e 7 172
e 7 180
e 7 184
e 7 192
e 8 10
e 8 19
e 8 20
e 8 32
e 8 39
e 8 40
e 8 48
e 8 49
e 8 54
e 8 64
e 8 71
e 8 84
e 8 85
e 8 91
e 8 105
e 8 107
e 8 109
e 8 124
e 8 130
e 8 138
e 8 140
e 8 163
e 8 188
e 8 189
e 8 198
e 9 22
e 9 30
e 9 34
e 9 36
e 9 46
e 9 48
e 9 60
e 9 63
e 9 65
e 9 86
e 9 94
e 9 104
e 9 117
e 9 141
e 9 147
e 9 154
e 9 166
e 9 172
e 9 174
e 9 189
e 10 31
e 10 32
e 10 40
e 10 43
e 10 54
e 10 56
e 10 57
e 10 75
e 10 85
e 10 88
e 10 101
e 10 105
e 10 107
e 10 124
e 10 130
e 10 140
e 10 145
e 10 163
e 10 176
e 10 181
e 10 189
e 11 15
e 11 18
e 11 27
e 11 31
e 11 35
e 11 49
e 11 55
e 11 58
e 11 73
e 11 87
e 11 90
e 11 102
e 11 114
e 11 127
e 11 153
e 11 166
e 11 185
e 11 187
e 12 37
e 12 38
e 12 42
e 12 46
e 12 50
e 12 67
e 12 75
e 12 92
e 12 96
e 12 98
e 12 99
e 12 107
e 12 109
e 12 137
e 12 144
e 12 152
e 12 160
e 12 161
e 13 32
e 13 39
e 13 68
e 13 78
e 13 80
e 13 82
e 13 83
e 13 89
e 13 101
e 13 103
e 13 121
e 13 132
e 13 139
e 13 196
e 13 197
e 14 17
e 14 28
e 14 51
e 14 64
e 14 70
e 14 80
e 14 81
e 14 88
e 14 110
e 14 125
e 14 126
e 14 139
e 14 140
e 14 152
e 14 168
e 14 170
e 14 171
e 14 182
e 14 183
e 14 187
e 14 190
e 14 199
e 15 18
e 15 31
e 15 47
e 15 49
e 15 90
e 15 106
e 15 114
e 15 117
e 15 120
e 15 122
e 15 124
e 15 127
e 15 128
e 15 148
e 15 153
e 15 156
e 15 168
e 15 185
e 15 187
e 15 196
e 16 17
e 16 23
e 16 29
e 16 66
e 16 72
e 16 93
e 16 108
e 16 115
e 16 126
e 16 132
e 16 134
e 16 138
e 16 141
e 16 143
e 16 145
e 16 172
e 16 184
e 16 192
e 17 29
e 17 64
e 17 66
e 17 70
e 17 72
e 17 80
e 17 81
e 17 88
e 17 108
e 17 115
e 17 125
e 17 134
e 17 141
e 17 168
e 17 183
e 18 21
e 18 31
e 18 49
e 18 59
e 18 74
e 18 78
e 18 90
e 18 92
e 18 100
e 18 114
e 18 127
e 18 129
e 18 142
e 18 147
e 18 153
e 18 163
e 18 185
e 18 187
e 18 192
e 18 194
e 19 20
e 19 39
e 19 48
e 19 49
e 19 58
e 19 64
e 19 71
e 19 84
e 19 91
e 19 94
e 19 95
e 19 109
e 19 111
e 19 113
e 19 120
e 19 134
e 19 138
e 19 142
e 19 158
e 19 161
e 19 188
e 19 198
e 19 199
e 20 26
e 20 39
e 20 48
e 20 49
e 20 64
e 20 65
e 20 71
e 20 84
e 20 91
e 20 109
e 20 123
e 20 129
e 20 137
e 20 138
e 20 173
e 20 177
e 20 178
e 20 188
e 20 190
e 20 198
e 21 47
e 21 51
e 21 59
e 21 66
e 21 74
e 21 78
e 21 92
e 21 100
e 21 129
e 21 133
e 21 142
e 21 146
e 21 147
e 21 149
e 21 155
e 21 163
e 21 164
e 21 176
e 21 192
e 21 194
e 21 198
e 22 30
e 22 34
e 22 35
e 22 36
e 22 63
e 22 65
e 22 74
e 22 77
e 22 94
e 22 104
e 22 106
e 22 118
e 22 136
e 22 170
e 22 172
e 22 174
e 22 181
e 22 188
e 22 189
e 22 193
e 23 24
e 23 61
e 23 93
e 23 95
e 23 125
e 23 126
e 23 132
e 23 136
e 23 138
e 23 143
e 23 144
e 23 145
e 23 149
e 23 172
e 23 175
e 23 177
e 23 179
e 23 184
e 23 192
e 24 29
e 24 41
e 24 52
e 24 57
e 24 61
e 24 62
e 24 63
e 24 69
e 24 73
e 24 84
e 24 95
e 24 125
e 24 136
e 24 144
e 24 149
e 24 175
e 24 177
e 24 179
e 25 38
e 25 61
e 25 62
e 25 72
e 25 79
e 25 89
e 25 93
e 25 100
e 25 104
e 25 105
e 25 119
e 25 133
e 25 135
e 25 151
e 25 171
e 26 65
e 26 76
e 26 83
e 26 85
e 26 123
e 26 129
e 26 137
e 26 143
e 26 151
e 26 154
e 26 155
e 26 165
e 26 173
e 26 177
e 26 178
e 26 190
e 26 191
e 27 30
e 27 35
e 27 50
e 27 55
e 27 58
e 27 73
e 27 87
e 27 102
e 27 119
e 27 128
e 27 165
e 27 166
e 27 169
e 27 179
e 27 186
e 27 194
e 27 195
e 27 197
e 28 33
e 28 51
e 28 67
e 28 68
e 28 71
e 28 110
e 28 116
e 28 126
e 28 139
e 28 140
e 28 148
e 28 152
e 28 170
e 28 171
e 28 182
e 28 187
e 28 190
e 28 199
e 29 41
e 29 52
e 29 57
e 29 62
e 29 63
e 29 66
e 29 69
e 29 72
e 29 73
e 29 84
e 29 108
e 29 115
e 29 134
e 29 141
e 30 34
e 30 36
e 30 50
e 30 63
e 30 65
e 30 94
e 30 104
e 30 119
e 30 128
e 30 165
e 30 169
e 30 172
e 30 174
e 30 179
e 30 186
e 30 189
e 30 194
e 30 195
e 30 197
e 31 43
e 31 49
e 31 56
e 31 57
e 31 75
e 31 88
e 31 90
e 31 101
e 31 114
e 31 127
e 31 145
e 31 153
e 31 176
e 31 181
e 31 185
e 31 187
e 32 40
e 32 54
e 32 68
e 32 80
e 32 85
e 32 89
e 32 105
e 32 107
e 32 124
e 32 130
e 32 132
e 32 140
e 32 163
e 32 189
e 32 197
e 33 42
e 33 44
e 33 60
e 33 67
e 33 68
e 33 69
e 33 71
e 33 112
e 33 113
e 33 116
e 33 148
e 33 159
e 33 178
e 33 183
e 33 185
e 33 193
e 33 195
e 34 36
e 34 43
e 34 53
e 34 63
e 34 65
e 34 87
e 34 94
e 34 98
e 34 104
e 34 159
e 34 162
e 34 172
e 34 174
e 34 180
e 34 189
e 34 191
e 35 55
e 35 58
e 35 73
e 35 74
e 35 77
e 35 87
e 35 102
e 35 106
e 35 118
e 35 136
e 35 166
e 35 170
e 35 181
e 35 188
e 35 193
e 36 45
e 36 55
e 36 56
e 36 63
e 36 65
e 36 76
e 36 79
e 36 94
e 36 104
e 36 110
e 36 112
e 36 115
e 36 122
e 36 131
e 36 157
e 36 160
e 36 172
e 36 174
e 36 189
e 37 42
e 37 75
e 37 82
e 37 90
e 37 92
e 37 96
e 37 99
e 37 109
e 37 116
e 37 118
e 37 123
e 37 131
e 37 144
e 37 152
e 37 180
e 38 46
e 38 50
e 38 61
e 38 67
e 38 72
e 38 89
e 38 98
e 38 100
e 38 104
e 38 107
e 38 135
e 38 137
e 38 151
e 38 160
e 38 161
e 38 171
e 39 48
e 39 49
e 39 64
e 39 71
e 39 78
e 39 82
e 39 83
e 39 84
e 39 91
e 39 101
e 39 103
e 39 109
e 39 121
e 39 138
e 39 139
e 39 188
e 39 196
e 39 198
e 40 52
e 40 54
e 40 77
e 40 81
e 40 85
e 40 96
e 40 103
e 40 105
e 40 107
e 40 124
e 40 127
e 40 130
e 40 140
e 40 146
e 40 150
e 40 163
e 40 186
e 40 189
e 41 52
e 41 53
e 41 57
e 41 62
e 41 63
e 41 69
e 41 70
e 41 73
e 41 84
e 41 121
e 41 130
e 41 135
e 41 153
e 41 157
e 41 158
e 41 167
e 41 169
e 41 173
e 41 184
e 42 44
e 42 60
e 42 69
e 42 75
e 42 92
e 42 96
e 42 99
e 42 109
e 42 112
e 42 113
e 42 144
e 42 152
e 42 159
e 42 178
e 42 183
e 42 185
e 42 193
e 42 195
e 43 53
e 43 56
e 43 57
e 43 75
e 43 87
e 43 88
e 43 98
e 43 101
e 43 145
e 43 159
e 43 162
e 43 176
e 43 180
e 43 181
e 43 191
e 44 59
e 44 60
e 44 69
e 44 91
e 44 97
e 44 102
e 44 108
e 44 112
e 44 113
e 44 150
e 44 156
e 44 159
e 44 167
e 44 174
e 44 175
e 44 178
e 44 182
e 44 183
e 44 185
e 44 193
e 44 195
e 45 54
e 45 55
e 45 56
e 45 76
e 45 79
e 45 86
e 45 97
e 45 99
e 45 110
e 45 111
e 45 112
e 45 114
e 45 115
e 45 122
e 45 131
e 45 157
e 45 160
e 45 162
e 45 164
e 46 48
e 46 50
e 46 60
e 46 67
e 46 86
e 46 98
e 46 107
e 46 117
e 46 137
e 46 141
e 46 147
e 46 154
e 46 160
e 46 161
e 46 166
e 47 51
e 47 66
e 47 106
e 47 117
e 47 120
e 47 122
e 47 124
e 47 128
e 47 133
e 47 146
e 47 148
e 47 149
e 47 155
e 47 156
e 47 164
e 47 168
e 47 176
e 47 196
e 47 198
e 48 49
e 48 60
e 48 64
e 48 71
e 48 84
e 48 86
e 48 91
e 48 109
e 48 117
e 48 138
e 48 141
e 48 147
e 48 154
e 48 166
e 48 188
e 48 198
e 49 64
e 49 71
e 49 84
e 49 90
e 49 91
e 49 109
e 49 114
e 49 127
e 49 138
e 49 153
e 49 185
e 49 187
e 49 188
e 49 198
e 50 67
e 50 98
e 50 107
e 50 119
e 50 128
e 50 137
e 50 160
e 50 161
e 50 165
e 50 169
e 50 179
e 50 186
e 50 194
e 50 195
e 50 197
e 51 66
e 51 110
e 51 126
e 51 133
e 51 139
e 51 140
e 51 146
e 51 149
e 51 152
e 51 155
e 51 164
e 51 170
e 51 171
e 51 176
e 51 182
e 51 187
e 51 190
e 51 198
e 51 199
e 52 57
e 52 62
e 52 63
e 52 69
e 52 73
e 52 77
e 52 81
e 52 84
e 52 96
e 52 103
e 52 127
e 52 146
e 52 150
e 52 186
e 53 70
e 53 87
e 53 98
e 53 121
e 53 130
e 53 135
e 53 153
e 53 157
e 53 158
e 53 159
e 53 162
e 53 167
e 53 169
e 53 173
e 53 180
e 53 184
e 53 191
e 54 85
e 54 86
e 54 97
e 54 99
e 54 105
e 54 107
e 54 111
e 54 114
e 54 124
e 54 130
e 54 140
e 54 162
e 54 163
e 54 164
e 54 189
e 55 56
e 55 58
e 55 73
e 55 76
e 55 79
e 55 87
e 55 102
e 55 110
e 55 112
e 55 115
e 55 122
e 55 131
e 55 157
e 55 160
e 55 166
e 56 57
e 56 75
e 56 76
e 56 79
e 56 88
e 56 101
e 56 110
e 56 112
e 56 115
e 56 122
e 56 131
e 56 145
e 56 157
e 56 160
e 56 176
e 56 181
e 57 62
e 57 63
e 57 69
e 57 73
e 57 75
e 57 84
e 57 88
e 57 101
e 57 145
e 57 176
e 57 181
e 58 73
e 58 87
e 58 94
e 58 95
e 58 102
e 58 111
e 58 113
e 58 120
e 58 134
e 58 142
e 58 158
e 58 161
e 58 166
e 58 199
e 59 74
e 59 78
e 59 91
e 59 92
e 59 97
e 59 100
e 59 102
e 59 108
e 59 129
e 59 142
e 59 147
e 59 150
e 59 156
e 59 163
e 59 167
e 59 174
e 59 175
e 59 182
e 59 192
e 59 194
e 60 69
e 60 86
e 60 112
e 60 113
e 60 117
e 60 141
e 60 147
e 60 154
e 60 159
e 60 166
e 60 178
e 60 183
e 60 185
e 60 193
e 60 195
e 61 72
e 61 89
e 61 95
e 61 100
e 61 104
e 61 125
e 61 135
e 61 136
e 61 144
e 61 149
e 61 151
e 61 171
e 61 175
e 61 177
e 61 179
e 62 63
e 62 69
e 62 73
e 62 79
e 62 84
e 62 93
e 62 105
e 62 119
e 62 133
e 63 65
e 63 69
e 63 73
e 63 84
e 63 94
e 63 104
e 63 172
e 63 174
e 63 189
e 64 70
e 64 71
e 64 80
e 64 81
e 64 84
e 64 88
e 64 91
e 64 109
e 64 125
e 64 138
e 64 168
e 64 183
e 64 188
e 64 198
e 65 94
e 65 104
e 65 123
e 65 129
e 65 137
e 65 172
e 65 173
e 65 174
e 65 177
e 65 178
e 65 189
e 65 190
e 66 72
e 66 108
e 66 115
e 66 133
e 66 134
e 66 141
e 66 146
e 66 149
e 66 155
e 66 164
e 66 176
e 66 198
e 67 68
e 67 71
e 67 98
e 67 107
e 67 116
e 67 137
e 67 148
e 67 160
e 67 161
e 68 71
e 68 80
e 68 89
e 68 116
e 68 132
e 68 148
e 68 197
e 69 73
e 69 84
e 69 112
e 69 113
e 69 159
e 69 178
e 69 183
e 69 185
e 69 193
e 69 195
e 70 80
e 70 81
e 70 88
e 70 121
e 70 125
e 70 130
e 70 135
e 70 153
e 70 157
e 70 158
e 70 167
e 70 168
e 70 169
e 70 173
e 70 183
e 70 184
e 71 84
e 71 91
e 71 109
e 71 116
e 71 138
e 71 148
e 71 188
e 71 198
e 72 89
e 72 100
e 72 104
e 72 108
e 72 115
e 72 134
e 72 135
e 72 141
e 72 151
e 72 171
e 73 84
e 73 87
e 73 102
e 73 166
e 74 77
e 74 78
e 74 92
e 74 100
e 74 106
e 74 118
e 74 129
e 74 136
e 74 142
e 74 147
e 74 163
e 74 170
e 74 181
e 74 188
e 74 192
e 74 193
e 74 194
e 75 88
e 75 92
e 75 96
e 75 99
e 75 101
e 75 109
e 75 144
e 75 145
e 75 152
e 75 176
e 75 181
e 76 79
e 76 83
e 76 85
e 76 110
e 76 112
e 76 115
e 76 122
e 76 131
e 76 143
e 76 151
e 76 154
e 76 155
e 76 157
e 76 160
e 76 165
e 76 191
e 77 81
e 77 96
e 77 103
e 77 106
e 77 118
e 77 127
e 77 136
e 77 146
e 77 150
e 77 170
e 77 181
e 77 186
e 77 188
e 77 193
e 78 82
e 78 83
e 78 92
e 78 100
e 78 101
e 78 103
e 78 121
e 78 129
e 78 139
e 78 142
e 78 147
e 78 163
e 78 192
e 78 194
e 78 196
e 79 93
e 79 105
e 79 110
e 79 112
e 79 115
e 79 119
e 79 122
e 79 131
e 79 133
e 79 157
e 79 160
e 80 81
e 80 88
e 80 89
e 80 125
e 80 132
e 80 168
e 80 183
e 80 197
e 81 88
e 81 96
e 81 103
e 81 125
e 81 127
e 81 146
e 81 150
e 81 168
e 81 183
e 81 186
e 82 83
e 82 90
e 82 101
e 82 103
e 82 116
e 82 118
e 82 121
e 82 123
e 82 131
e 82 139
e 82 180
e 82 196
e 83 85
e 83 101
e 83 103
e 83 121
e 83 139
e 83 143
e 83 151
e 83 154
e 83 155
e 83 165
e 83 191
e 83 196
e 84 91
e 84 109
e 84 138
e 84 188
e 84 198
e 85 105
e 85 107
e 85 124
e 85 130
e 85 140
e 85 143
e 85 151
e 85 154
e 85 155
e 85 163
e 85 165
e 85 189
e 85 191
e 86 97
e 86 99
e 86 111
e 86 114
e 86 117
e 86 141
e 86 147
e 86 154
e 86 162
e 86 164
e 86 166
e 87 98
e 87 102
e 87 159
e 87 162
e 87 166
e 87 180
e 87 191
e 88 101
e 88 125
e 88 145
e 88 168
e 88 176
e 88 181
e 88 183
e 89 100
e 89 104
e 89 132
e 89 135
e 89 151
e 89 171
e 89 197
e 90 114
e 90 116
e 90 118
e 90 123
e 90 127
e 90 131
e 90 153
e 90 180
e 90 185
e 90 187
e 91 97
e 91 102
e 91 108
e 91 109
e 91 138
e 91 150
e 91 156
e 91 167
e 91 174
e 91 175
e 91 182
e 91 188
e 91 198
e 92 96
e 92 99
e 92 100
e 92 109
e 92 129
e 92 142
e 92 144
e 92 147
e 92 152
e 92 163
e 92 192
e 92 194
e 93 105
e 93 119
e 93 126
e 93 132
e 93 133
e 93 138
e 93 143
e 93 145
e 93 172
e 93 184
e 93 192
e 94 95
e 94 104
e 94 111
e 94 113
e 94 120
e 94 134
e 94 142
e 94 158
e 94 161
e 94 172
e 94 174
e 94 189
e 94 199
e 95 111
e 95 113
e 95 120
e 95 125
e 95 134
e 95 136
e 95 142
e 95 144
e 95 149
e 95 158
e 95 161
e 95 175
e 95 177
e 95 179
e 95 199
e 96 99
e 96 103
e 96 109
e 96 127
e 96 144
e 96 146
e 96 150
e 96 152
e 96 186
e 97 99
e 97 102
e 97 108
e 97 111
e 97 114
e 97 150
e 97 156
e 97 162
e 97 164
e 97 167
e 97 174
e 97 175
e 97 182
e 98 107
e 98 137
e 98 159
e 98 160
e 98 161
e 98 162
e 98 180
e 98 191
e 99 109
e 99 111
e 99 114
e 99 144
e 99 152
e 99 162
e 99 164
e 100 104
e 100 129
e 100 135
e 100 142
e 100 147
e 100 151
e 100 163
e 100 171
e 100 192
e 100 194
e 101 103
e 101 121
e 101 139
e 101 145
e 101 176
e 101 181
e 101 196
e 102 108
e 102 150
e 102 156
e 102 166
e 102 167
e 102 174
e 102 175
e 102 182
e 103 121
e 103 127
e 103 139
e 103 146
e 103 150
e 103 186
e 103 196
e 104 135
e 104 151
e 104 171
e 104 172
e 104 174
e 104 189
e 105 107
e 105 119
e 105 124
e 105 130
e 105 133
e 105 140
e 105 163
e 105 189
e 106 117
e 106 118
e 106 120
e 106 122
e 106 124
e 106 128
e 106 136
e 106 148
e 106 156
e 106 168
e 106 170
e 106 181
e 106 188
e 106 193
e 106 196
e 107 124
e 107 130
e 107 137
e 107 140
e 107 160
e 107 161
e 107 163
e 107 189
e 108 115
e 108 134
e 108 141
e 108 150
e 108 156
e 108 167
e 108 174
e 108 175
e 108 182
e 109 138
e 109 144
e 109 152
e 109 188
e 109 198
e 110 112
e 110 115
e 110 122
e 110 126
e 110 131
e 110 139
e 110 140
e 110 152
e 110 157
e 110 160
e 110 170
e 110 171
e 110 182
e 110 187
e 110 190
e 110 199
e 111 113
e 111 114
e 111 120
e 111 134
e 111 142
e 111 158
e 111 161
e 111 162
e 111 164
e 111 199
e 112 113
e 112 115
e 112 122
e 112 131
e 112 157
e 112 159
e 112 160
e 112 178
e 112 183
e 112 185
e 112 193
e 112 195
e 113 120
e 113 134
e 113 142
e 113 158
e 113 159
e 113 161
e 113 178
e 113 183
e 113 185
e 113 193
e 113 195
e 113 199
e 114 127
e 114 153
e 114 162
e 114 164
e 114 185
e 114 187
e 115 122
e 115 131
e 115 134
e 115 141
e 115 157
e 115 160
e 116 118
e 116 123
e 116 131
e 116 148
e 116 180
e 117 120
e 117 122
e 117 124
e 117 128
e 117 141
e 117 147
e 117 148
e 117 154
e 117 156
e 117 166
e 117 168
e 117 196
e 118 123
e 118 131
e 118 136
e 118 170
e 118 180
e 118 181
e 118 188
e 118 193
e 119 128
e 119 133
e 119 165
e 119 169
e 119 179
e 119 186
e 119 194
e 119 195
e 119 197
e 120 122
e 120 124
e 120 128
e 120 134
e 120 142
e 120 148
e 120 156
e 120 158
e 120 161
e 120 168
e 120 196
e 120 199
e 121 130
e 121 135
e 121 139
e 121 153
e 121 157
e 121 158
e 121 167
e 121 169
e 121 173
e 121 184
e 121 196
e 122 124
e 122 128
e 122 131
e 122 148
e 122 156
e 122 157
e 122 160
e 122 168
e 122 196
e 123 129
e 123 131
e 123 137
e 123 173
e 123 177
e 123 178
e 123 180
e 123 190
e 124 128
e 124 130
e 124 140
e 124 148
e 124 156
e 124 163
e 124 168
e 124 189
e 124 196
e 125 136
e 125 144
e 125 149
e 125 168
e 125 175
e 125 177
e 125 179
e 125 183
e 126 132
e 126 138
e 126 139
e 126 140
e 126 143
e 126 145
e 126 152
e 126 170
e 126 171
e 126 172
e 126 182
e 126 184
e 126 187
e 126 190
e 126 192
e 126 199
e 127 146
e 127 150
e 127 153
e 127 185
e 127 186
e 127 187
e 128 148
e 128 156
e 128 165
e 128 168
e 128 169
e 128 179
e 128 186
e 128 194
e 128 195
e 128 196
e 128 197
e 129 137
e 129 142
e 129 147
e 129 163
e 129 173
e 129 177
e 129 178
e 129 190
e 129 192
e 129 194
e 130 135
e 130 140
e 130 153
e 130 157
e 130 158
e 130 163
e 130 167
e 130 169
e 130 173
e 130 184
e 130 189
e 131 157
e 131 160
e 131 180
e 132 138
e 132 143
e 132 145
e 132 172
e 132 184
e 132 192
e 132 197
e 133 146
e 133 149
e 133 155
e 133 164
e 133 176
e 133 198
e 134 141
e 134 142
e 134 158
e 134 161
e 134 199
e 135 151
e 135 153
e 135 157
e 135 158
e 135 167
e 135 169
e 135 171
e 135 173
e 135 184
e 136 144
e 136 149
e 136 170
e 136 175
e 136 177
e 136 179
e 136 181
e 136 188
e 136 193
e 137 160
e 137 161
e 137 173
e 137 177
e 137 178
e 137 190
e 138 143
e 138 145
e 138 172
e 138 184
e 138 188
e 138 192
e 138 198
e 139 140
e 139 152
e 139 170
e 139 171
e 139 182
e 139 187
e 139 190
e 139 196
e 139 199
e 140 152
e 140 163
e 140 170
e 140 171
e 140 182
e 140 187
e 140 189
e 140 190
e 140 199
e 141 147
e 141 154
e 141 166
e 142 147
e 142 158
e 142 161
e 142 163
e 142 192
e 142 194
e 142 199
e 143 145
e 143 151
e 143 154
e 143 155
e 143 165
e 143 172
e 143 184
e 143 191
e 143 192
e 144 149
e 144 152
e 144 175
e 144 177
e 144 179
e 145 172
e 145 176
e 145 181
e 145 184
e 145 192
e 146 149
e 146 150
e 146 155
e 146 164
e 146 176
e 146 186
e 146 198
e 147 154
e 147 163
e 147 166
e 147 192
e 147 194
e 148 156
e 148 168
e 148 196
e 149 155
e 149 164
e 149 175
e 149 176
e 149 177
e 149 179
e 149 198
e 150 156
e 150 167
e 150 174
e 150 175
e 150 182
e 150 186
e 151 154
e 151 155
e 151 165
e 151 171
e 151 191
e 152 170
e 152 171
e 152 182
e 152 187
e 152 190
e 152 199
e 153 157
e 153 158
e 153 167
e 153 169
e 153 173
e 153 184
e 153 185
e 153 187
e 154 155
e 154 165
e 154 166
e 154 191
e 155 164
e 155 165
e 155 176
e 155 191
e 155 198
e 156 167
e 156 168
e 156 174
e 156 175
e 156 182
e 156 196
e 157 158
e 157 160
e 157 167
e 157 169
e 157 173
e 157 184
e 158 161
e 158 167
e 158 169
e 158 173
e 158 184
e 158 199
e 159 162
e 159 178
e 159 180
e 159 183
e 159 185
e 159 191
e 159 193
e 159 195
e 160 161
e 161 199
e 162 164
e 162 180
e 162 191
e 163 189
e 163 192
e 163 194
e 164 176
e 164 198
e 165 169
e 165 179
e 165 186
e 165 191
e 165 194
e 165 195
e 165 197
e 167 169
e 167 173
e 167 174
e 167 175
e 167 182
e 167 184
e 168 183
e 168 196
e 169 173
e 169 179
e 169 184
e 169 186
e 169 194
e 169 195
e 169 197
e 170 171
e 170 181
e 170 182
e 170 187
e 170 188
e 170 190
e 170 193
e 170 199
e 171 182
e 171 187
e 171 190
e 171 199
e 172 174
e 172 184
e 172 189
e 172 192
e 173 177
e 173 178
e 173 184
e 173 190
e 174 175
e 174 182
e 174 189
e 175 177
e 175 179
e 175 182
e 176 181
e 176 198
e 177 178
e 177 179
e 177 190
e 178 183
e 178 185
e 178 190
e 178 193
e 178 195
e 179 186
e 179 194
e 179 195
e 179 197
e 180 191
e 181 188
e 181 193
e 182 187
e 182 190
e 182 199
e 183 185
e 183 193
e 183 195
e 184 192
e 185 187
e 185 193
e 185 195
e 186 194
e 186 195
e 186 197
e 187 190
e 187 199
e 188 193
e 188 198
e 190 199
e 192 194
e 193 195
e 194 195
e 194 197
e 195 197
